*Heading
tiny standard solver test - single element
*Node
1, 0, 0, 0
2, 1, 0, 0
3, 1, 1, 0
4, 0, 1, 0
5, 0, 0, 1
6, 1, 0, 1
7, 1, 1, 1
8, 0, 1, 1
*Element, type=C3D8
1, 1, 2, 3, 4, 5, 6, 7, 8
*Nset, nset=ALLN, generate
1, 8, 1
*Elset, elset=ALLE, generate
1, 1, 1
*Solid Section, elset=ALLE, material=STEEL
1.,
*Material, name=STEEL
*Elastic
210000., 0.3
*Step, name=LoadStep, nlgeom=NO
*Static
1., 1., 1.e-5, 1.
*Boundary
5, 1, 3
6, 1, 3
7, 1, 3
8, 1, 3
*Cload
4, 2, -1000.
*Output, field
*Node Output
U
*End Step
